(declare-const havoc Int)
(declare-const |param1':456:476| Int)
(declare-const |return':454:478| Int)
(declare-const |param0':455:477| Int)
(declare-const |return':268:468:480| Int)
(declare-const |param0':269:467:479| Int)
(declare-const |havoc:3:33| Int)
(assert (and (< (- havoc) 0) (<= (+ havoc -2147483647) 0)
               (< (- |havoc:3:33|) 0) (<= (+ |havoc:3:33| -2147483647) 0)
               (< (- havoc) 0) (< (- |havoc:3:33|) 0)
               (= (+ |param0':455:477| (- |param1':456:476|)) 0)
               (= (+ |return':454:478| (- |param1':456:476|)) 0)
               (<= (+ |param1':456:476| (- havoc)) 0)
               (<= (+ |param1':456:476| (- |havoc:3:33|)) 0)
               (<= (+ (- |param1':456:476|) 1) 0)
               (= (+ |param0':269:467:479| (- |return':454:478|)) 0)
               (<= (+ |return':268:468:480| -1) 0)
               (<= (- |return':268:468:480|) 0) (= |return':268:468:480| 0)))
(check-sat)
